WARNING: for repeatability, setting FPU to use double precision
============================[ Problem Statistics ]=============================
|                                                                             |
|  Number of variables:            50                                         |
|  Number of clauses:             218                                         |
|  Parse time:                   0.00 s                                       |
|                                                                             |
============================[ Search Statistics ]==============================
| Conflicts |          ORIGINAL         |          LEARNT          | Progress |
|           |    Vars  Clauses Literals |    Limit  Clauses Lit/Cl |          |
===============================================================================
|       100 |      48      213      639 |       79       51      4 |  4.042 % |
===============================================================================
restarts              : 2
conflicts             : 121            (365559 /sec)
decisions             : 143            (0.00 % random) (432024 /sec)
propagations          : 1538           (4646526 /sec)
conflict literals     : 486            (15.03 % deleted)
Memory used           : 20.00 MB
CPU time              : 0.000331 s

UNSATISFIABLE
